
Gurobi 9.5.2 (win64) logging started Fri Nov 17 17:34:31 2023

Set parameter LogFile to value "./ccga_results/2023-11-17 17-34-29-938/MSP_TimeStampConvert_gurobi_log.txt"
Set parameter TimeLimit to value 7200

Gurobi 9.5.2 (win64) logging started Fri Nov 17 17:34:31 2023

Set parameter LogFile to value "./ccga_results/2023-11-17 17-34-29-938/MSP_TimeStampConvert_gurobi_log.txt"
Set parameter TimeLimit to value 7200
Gurobi Optimizer version 9.5.2 build v9.5.2rc0 (win64)
Thread count: 10 physical cores, 20 logical processors, using up to 20 threads
Optimize a model with 600 rows, 457 columns and 1482 nonzeros
Model fingerprint: 0xe63f0f4b
Variable types: 25 continuous, 432 integer (432 binary)
Coefficient statistics:
  Matrix range     [1e+00, 1e+00]
  Objective range  [1e+00, 1e+00]
  Bounds range     [1e+03, 1e+03]
  RHS range        [1e+00, 1e+00]
Found heuristic solution: objective 24000.000000

Explored 0 nodes (0 simplex iterations) in 0.00 seconds (0.00 work units)
Thread count was 1 (of 20 available processors)

Solution count 1: 24000 

Optimal solution found (tolerance 5.00e-02)
Best objective 2.400000000000e+04, best bound 2.400000000000e+04, gap 0.0000%

User-callback calls 21, time in user-callback 0.00 sec
Set parameter TimeLimit to value 7199
Gurobi Optimizer version 9.5.2 build v9.5.2rc0 (win64)
Thread count: 10 physical cores, 20 logical processors, using up to 20 threads
Optimize a model with 2149 rows, 961 columns and 6467 nonzeros
Model fingerprint: 0xc844b90b
Variable types: 481 continuous, 480 integer (480 binary)
Coefficient statistics:
  Matrix range     [5e-01, 8e+02]
  Objective range  [1e+00, 1e+00]
  Bounds range     [1e+03, 1e+03]
  RHS range        [1e+00, 1e+08]

MIP start from previous solve did not produce a new incumbent solution

Presolve removed 578 rows and 206 columns
Presolve time: 0.02s
Presolved: 1571 rows, 755 columns, 5268 nonzeros
Variable types: 404 continuous, 351 integer (351 binary)
Found heuristic solution: objective 18328.364673

Root relaxation: objective 2.000000e+04, 927 iterations, 0.01 seconds (0.01 work units)

    Nodes    |    Current Node    |     Objective Bounds      |     Work
 Expl Unexpl |  Obj  Depth IntInf | Incumbent    BestBd   Gap | It/Node Time

*    0     0               0    20000.000000 20000.0000  0.00%     -    0s

Explored 1 nodes (1105 simplex iterations) in 0.04 seconds (0.05 work units)
Thread count was 20 (of 20 available processors)

Solution count 2: 20000 18328.4 

Optimal solution found (tolerance 5.00e-02)
Best objective 2.000000000000e+04, best bound 2.000000000000e+04, gap 0.0000%

User-callback calls 638, time in user-callback 0.00 sec
Gurobi Optimizer version 9.5.2 build v9.5.2rc0 (win64)
Thread count: 10 physical cores, 20 logical processors, using up to 20 threads
Optimize a model with 3698 rows, 1465 columns and 11452 nonzeros
Model fingerprint: 0xa9697b5c
Variable types: 937 continuous, 528 integer (528 binary)
Coefficient statistics:
  Matrix range     [5e-01, 8e+02]
  Objective range  [1e+00, 1e+00]
  Bounds range     [1e+03, 1e+03]
  RHS range        [1e+00, 1e+08]

MIP start from previous solve did not produce a new incumbent solution

Presolve removed 1785 rows and 608 columns
Presolve time: 0.03s
Presolved: 1913 rows, 857 columns, 6504 nonzeros
Variable types: 581 continuous, 276 integer (276 binary)
Found heuristic solution: objective 12188.207339

Root relaxation: objective 1.545000e+04, 586 iterations, 0.00 seconds (0.00 work units)

    Nodes    |    Current Node    |     Objective Bounds      |     Work
 Expl Unexpl |  Obj  Depth IntInf | Incumbent    BestBd   Gap | It/Node Time

*    0     0               0    15450.000000 15450.0000  0.00%     -    0s

Explored 1 nodes (806 simplex iterations) in 0.06 seconds (0.07 work units)
Thread count was 20 (of 20 available processors)

Solution count 2: 15450 12188.2 

Optimal solution found (tolerance 5.00e-02)
Best objective 1.545000000000e+04, best bound 1.545000000000e+04, gap 0.0000%

User-callback calls 811, time in user-callback 0.00 sec
Gurobi Optimizer version 9.5.2 build v9.5.2rc0 (win64)
Thread count: 10 physical cores, 20 logical processors, using up to 20 threads
Optimize a model with 5247 rows, 1969 columns and 16437 nonzeros
Model fingerprint: 0x4bd3e400
Variable types: 1393 continuous, 576 integer (576 binary)
Coefficient statistics:
  Matrix range     [5e-01, 8e+02]
  Objective range  [1e+00, 1e+00]
  Bounds range     [1e+03, 1e+03]
  RHS range        [1e+00, 1e+08]

MIP start from previous solve did not produce a new incumbent solution

Presolve removed 2979 rows and 974 columns
Presolve time: 0.04s
Presolved: 2268 rows, 995 columns, 7741 nonzeros
Variable types: 751 continuous, 244 integer (244 binary)
Found heuristic solution: objective 9995.1661369

Root relaxation: objective 1.295403e+04, 872 iterations, 0.01 seconds (0.01 work units)

    Nodes    |    Current Node    |     Objective Bounds      |     Work
 Expl Unexpl |  Obj  Depth IntInf | Incumbent    BestBd   Gap | It/Node Time

     0     0 12954.0345    0    6 9995.16614 12954.0345  29.6%     -    0s
H    0     0                    12935.000000 12954.0345  0.15%     -    0s

Explored 1 nodes (1124 simplex iterations) in 0.08 seconds (0.11 work units)
Thread count was 20 (of 20 available processors)

Solution count 2: 12935 9995.17 

Optimal solution found (tolerance 5.00e-02)
Best objective 1.293500000000e+04, best bound 1.295403445679e+04, gap 0.1472%

User-callback calls 908, time in user-callback 0.00 sec
Gurobi Optimizer version 9.5.2 build v9.5.2rc0 (win64)
Thread count: 10 physical cores, 20 logical processors, using up to 20 threads
Optimize a model with 6796 rows, 2473 columns and 21422 nonzeros
Model fingerprint: 0x078fd507
Variable types: 1849 continuous, 624 integer (624 binary)
Coefficient statistics:
  Matrix range     [5e-01, 8e+02]
  Objective range  [1e+00, 1e+00]
  Bounds range     [1e+03, 1e+03]
  RHS range        [1e+00, 1e+08]

MIP start from previous solve did not produce a new incumbent solution

Presolve removed 3612 rows and 1130 columns
Presolve time: 0.06s
Presolved: 3184 rows, 1343 columns, 10952 nonzeros
Variable types: 1127 continuous, 216 integer (216 binary)
Found heuristic solution: objective 8314.7901590

Root relaxation: objective 9.468358e+03, 1548 iterations, 0.01 seconds (0.02 work units)

    Nodes    |    Current Node    |     Objective Bounds      |     Work
 Expl Unexpl |  Obj  Depth IntInf | Incumbent    BestBd   Gap | It/Node Time

     0     0 9468.35831    0   14 8314.79016 9468.35831  13.9%     -    0s
H    0     0                    9415.0000000 9468.35831  0.57%     -    0s

Cutting planes:
  Gomory: 5
  Cover: 1
  MIR: 20
  Flow cover: 23
  Relax-and-lift: 1

Explored 1 nodes (1727 simplex iterations) in 0.15 seconds (0.18 work units)
Thread count was 20 (of 20 available processors)

Solution count 2: 9415 8314.79 

Optimal solution found (tolerance 5.00e-02)
Best objective 9.415000000000e+03, best bound 9.468358305634e+03, gap 0.5667%

User-callback calls 855, time in user-callback 0.00 sec
Set parameter TimeLimit to value 7198
Gurobi Optimizer version 9.5.2 build v9.5.2rc0 (win64)
Thread count: 10 physical cores, 20 logical processors, using up to 20 threads
Optimize a model with 8345 rows, 2977 columns and 26407 nonzeros
Model fingerprint: 0xc8680b99
Variable types: 2305 continuous, 672 integer (672 binary)
Coefficient statistics:
  Matrix range     [5e-01, 8e+02]
  Objective range  [1e+00, 1e+00]
  Bounds range     [1e+03, 1e+03]
  RHS range        [1e+00, 1e+08]

MIP start from previous solve did not produce a new incumbent solution

Presolve removed 4214 rows and 1260 columns
Presolve time: 0.09s
Presolved: 4131 rows, 1717 columns, 14314 nonzeros
Variable types: 1508 continuous, 209 integer (209 binary)
Found heuristic solution: objective 6781.1111111

Root relaxation: objective 7.304765e+03, 2090 iterations, 0.02 seconds (0.03 work units)

    Nodes    |    Current Node    |     Objective Bounds      |     Work
 Expl Unexpl |  Obj  Depth IntInf | Incumbent    BestBd   Gap | It/Node Time

     0     0 7304.76459    0   13 6781.11111 7304.76459  7.72%     -    0s
H    0     0                    7285.0000000 7304.76459  0.27%     -    0s

Cutting planes:
  Gomory: 5
  Cover: 1
  MIR: 17
  Flow cover: 30
  Relax-and-lift: 1

Explored 1 nodes (2170 simplex iterations) in 0.18 seconds (0.23 work units)
Thread count was 20 (of 20 available processors)

Solution count 2: 7285 6781.11 

Optimal solution found (tolerance 5.00e-02)
Best objective 7.285000000000e+03, best bound 7.304764586755e+03, gap 0.2713%

User-callback calls 892, time in user-callback 0.00 sec
Gurobi Optimizer version 9.5.2 build v9.5.2rc0 (win64)
Thread count: 10 physical cores, 20 logical processors, using up to 20 threads
Optimize a model with 9894 rows, 3481 columns and 31392 nonzeros
Model fingerprint: 0xb8679d68
Variable types: 2761 continuous, 720 integer (720 binary)
Coefficient statistics:
  Matrix range     [5e-01, 8e+02]
  Objective range  [1e+00, 1e+00]
  Bounds range     [1e+03, 1e+03]
  RHS range        [1e+00, 1e+08]

MIP start from previous solve did not produce a new incumbent solution

Presolve removed 5467 rows and 1623 columns
Presolve time: 0.10s
Presolved: 4427 rows, 1858 columns, 15422 nonzeros
Variable types: 1655 continuous, 203 integer (203 binary)
Found heuristic solution: objective 6009.3897876
Found heuristic solution: objective 6159.3897876

Root relaxation: objective 6.354765e+03, 2170 iterations, 0.02 seconds (0.03 work units)

    Nodes    |    Current Node    |     Objective Bounds      |     Work
 Expl Unexpl |  Obj  Depth IntInf | Incumbent    BestBd   Gap | It/Node Time

     0     0 6354.76459    0   11 6159.38979 6354.76459  3.17%     -    0s

Explored 1 nodes (2271 simplex iterations) in 0.18 seconds (0.26 work units)
Thread count was 20 (of 20 available processors)

Solution count 2: 6159.39 6009.39 

Optimal solution found (tolerance 5.00e-02)
Best objective 6.159389787582e+03, best bound 6.354764586755e+03, gap 3.1720%

User-callback calls 945, time in user-callback 0.00 sec
Gurobi Optimizer version 9.5.2 build v9.5.2rc0 (win64)
Thread count: 10 physical cores, 20 logical processors, using up to 20 threads
Optimize a model with 11443 rows, 3985 columns and 36377 nonzeros
Model fingerprint: 0xfb38507b
Variable types: 3217 continuous, 768 integer (768 binary)
Coefficient statistics:
  Matrix range     [5e-01, 8e+02]
  Objective range  [1e+00, 1e+00]
  Bounds range     [1e+03, 1e+03]
  RHS range        [1e+00, 1e+08]

MIP start from previous solve produced solution with objective 5585 (0.05s)
Loaded MIP start from previous solve with objective 5585

Presolve removed 6073 rows and 1753 columns
Presolve time: 0.13s
Presolved: 5370 rows, 2232 columns, 18512 nonzeros
Variable types: 2036 continuous, 196 integer (194 binary)

Root relaxation: objective 5.604765e+03, 2728 iterations, 0.03 seconds (0.03 work units)

    Nodes    |    Current Node    |     Objective Bounds      |     Work
 Expl Unexpl |  Obj  Depth IntInf | Incumbent    BestBd   Gap | It/Node Time

     0     0 5604.76459    0   12 5585.00000 5604.76459  0.35%     -    0s

Explored 1 nodes (2793 simplex iterations) in 0.22 seconds (0.33 work units)
Thread count was 20 (of 20 available processors)

Solution count 1: 5585 

Optimal solution found (tolerance 5.00e-02)
Best objective 5.585000000000e+03, best bound 5.604764586755e+03, gap 0.3539%

User-callback calls 958, time in user-callback 0.00 sec
Set parameter TimeLimit to value 7196
Gurobi Optimizer version 9.5.2 build v9.5.2rc0 (win64)
Thread count: 10 physical cores, 20 logical processors, using up to 20 threads
Optimize a model with 12992 rows, 4489 columns and 41362 nonzeros
Model fingerprint: 0xd028fbb3
Variable types: 3673 continuous, 816 integer (816 binary)
Coefficient statistics:
  Matrix range     [5e-01, 8e+02]
  Objective range  [1e+00, 1e+00]
  Bounds range     [1e+03, 1e+03]
  RHS range        [1e+00, 1e+08]

MIP start from previous solve produced solution with objective 5495.82 (0.05s)
Loaded MIP start from previous solve with objective 5495.82

Presolve removed 6632 rows and 1875 columns
Presolve time: 0.15s
Presolved: 6360 rows, 2614 columns, 21836 nonzeros
Variable types: 2417 continuous, 197 integer (194 binary)

Root relaxation: objective 5.567068e+03, 3252 iterations, 0.04 seconds (0.04 work units)

    Nodes    |    Current Node    |     Objective Bounds      |     Work
 Expl Unexpl |  Obj  Depth IntInf | Incumbent    BestBd   Gap | It/Node Time

     0     0 5567.06820    0   16 5495.81879 5567.06820  1.30%     -    0s

Explored 1 nodes (3323 simplex iterations) in 0.27 seconds (0.41 work units)
Thread count was 20 (of 20 available processors)

Solution count 2: 5495.82 -5495.82 

Optimal solution found (tolerance 5.00e-02)
Best objective 5.495818791468e+03, best bound 5.567068203895e+03, gap 1.2964%

User-callback calls 977, time in user-callback 0.00 sec
Set parameter TimeLimit to value 7195
Gurobi Optimizer version 9.5.2 build v9.5.2rc0 (win64)
Thread count: 10 physical cores, 20 logical processors, using up to 20 threads
Optimize a model with 14541 rows, 4993 columns and 46347 nonzeros
Model fingerprint: 0x376a251a
Variable types: 4129 continuous, 864 integer (864 binary)
Coefficient statistics:
  Matrix range     [5e-01, 8e+02]
  Objective range  [1e+00, 1e+00]
  Bounds range     [1e+03, 1e+03]
  RHS range        [1e+00, 1e+08]

MIP start from previous solve produced solution with objective 5421.11 (0.06s)
Loaded MIP start from previous solve with objective 5421.11

Presolve removed 7192 rows and 1998 columns
Presolve time: 0.18s
Presolved: 7349 rows, 2995 columns, 25203 nonzeros
Variable types: 2798 continuous, 197 integer (194 binary)

Root relaxation: objective 5.522801e+03, 3846 iterations, 0.05 seconds (0.05 work units)

    Nodes    |    Current Node    |     Objective Bounds      |     Work
 Expl Unexpl |  Obj  Depth IntInf | Incumbent    BestBd   Gap | It/Node Time

     0     0 5522.80069    0   19 5421.11111 5522.80069  1.88%     -    0s

Explored 1 nodes (3971 simplex iterations) in 0.32 seconds (0.48 work units)
Thread count was 20 (of 20 available processors)

Solution count 1: 5421.11 

Optimal solution found (tolerance 5.00e-02)
Best objective 5.421111111111e+03, best bound 5.522800689479e+03, gap 1.8758%

User-callback calls 992, time in user-callback 0.00 sec
Set parameter TimeLimit to value 7193
Gurobi Optimizer version 9.5.2 build v9.5.2rc0 (win64)
Thread count: 10 physical cores, 20 logical processors, using up to 20 threads
Optimize a model with 16090 rows, 5497 columns and 51332 nonzeros
Model fingerprint: 0x76ca9a67
Variable types: 4585 continuous, 912 integer (912 binary)
Coefficient statistics:
  Matrix range     [5e-01, 8e+02]
  Objective range  [1e+00, 1e+00]
  Bounds range     [1e+03, 1e+03]
  RHS range        [1e+00, 1e+08]

MIP start from previous solve produced solution with objective 5416.47 (0.07s)
Loaded MIP start from previous solve with objective 5416.47

Presolve removed 7752 rows and 2121 columns
Presolve time: 0.20s
Presolved: 8338 rows, 3376 columns, 28576 nonzeros
Variable types: 3179 continuous, 197 integer (194 binary)

Root relaxation: objective 5.502952e+03, 4489 iterations, 0.06 seconds (0.06 work units)

    Nodes    |    Current Node    |     Objective Bounds      |     Work
 Expl Unexpl |  Obj  Depth IntInf | Incumbent    BestBd   Gap | It/Node Time

     0     0 5502.95211    0   19 5416.46872 5502.95211  1.60%     -    0s

Explored 1 nodes (4688 simplex iterations) in 0.38 seconds (0.56 work units)
Thread count was 20 (of 20 available processors)

Solution count 2: 5416.47 -5416.47 

Optimal solution found (tolerance 5.00e-02)
Best objective 5.416468715069e+03, best bound 5.502952110830e+03, gap 1.5967%

User-callback calls 1006, time in user-callback 0.00 sec
Set parameter TimeLimit to value 7191
Gurobi Optimizer version 9.5.2 build v9.5.2rc0 (win64)
Thread count: 10 physical cores, 20 logical processors, using up to 20 threads
Optimize a model with 17639 rows, 6001 columns and 56317 nonzeros
Model fingerprint: 0xa8fe203b
Variable types: 5041 continuous, 960 integer (960 binary)
Coefficient statistics:
  Matrix range     [5e-01, 8e+02]
  Objective range  [1e+00, 1e+00]
  Bounds range     [1e+03, 1e+03]
  RHS range        [1e+00, 1e+08]

MIP start from previous solve produced solution with objective 5372.22 (0.08s)
Loaded MIP start from previous solve with objective 5372.22

Presolve removed 8312 rows and 2244 columns
Presolve time: 0.22s
Presolved: 9327 rows, 3757 columns, 31946 nonzeros
Variable types: 3560 continuous, 197 integer (194 binary)

Root relaxation: objective 5.476082e+03, 4841 iterations, 0.06 seconds (0.06 work units)

    Nodes    |    Current Node    |     Objective Bounds      |     Work
 Expl Unexpl |  Obj  Depth IntInf | Incumbent    BestBd   Gap | It/Node Time

     0     0 5476.08203    0   19 5372.22222 5476.08203  1.93%     -    0s

Explored 1 nodes (4998 simplex iterations) in 0.41 seconds (0.61 work units)
Thread count was 20 (of 20 available processors)

Solution count 2: 5372.22 -5372.22 

Optimal solution found (tolerance 5.00e-02)
Best objective 5.372222222222e+03, best bound 5.476082028348e+03, gap 1.9333%

User-callback calls 1002, time in user-callback 0.00 sec
Set parameter TimeLimit to value 7189
Gurobi Optimizer version 9.5.2 build v9.5.2rc0 (win64)
Thread count: 10 physical cores, 20 logical processors, using up to 20 threads
Optimize a model with 19188 rows, 6505 columns and 61302 nonzeros
Model fingerprint: 0xe917731b
Variable types: 5497 continuous, 1008 integer (1008 binary)
Coefficient statistics:
  Matrix range     [5e-01, 8e+02]
  Objective range  [1e+00, 1e+00]
  Bounds range     [1e+03, 1e+03]
  RHS range        [1e+00, 1e+08]

MIP start from previous solve produced solution with objective 5363.15 (0.09s)
Loaded MIP start from previous solve with objective 5363.15

Presolve removed 8872 rows and 2367 columns
Presolve time: 0.25s
Presolved: 10316 rows, 4138 columns, 35313 nonzeros
Variable types: 3941 continuous, 197 integer (194 binary)

Root relaxation: objective 5.471437e+03, 5524 iterations, 0.08 seconds (0.07 work units)

    Nodes    |    Current Node    |     Objective Bounds      |     Work
 Expl Unexpl |  Obj  Depth IntInf | Incumbent    BestBd   Gap | It/Node Time

     0     0 5471.43704    0   19 5363.14815 5471.43704  2.02%     -    0s

Explored 1 nodes (5729 simplex iterations) in 0.48 seconds (0.70 work units)
Thread count was 20 (of 20 available processors)

Solution count 2: 5363.15 -5363.15 

Optimal solution found (tolerance 5.00e-02)
Best objective 5.363148148148e+03, best bound 5.471437038832e+03, gap 2.0191%

User-callback calls 1008, time in user-callback 0.00 sec
Set parameter TimeLimit to value 7187
Gurobi Optimizer version 9.5.2 build v9.5.2rc0 (win64)
Thread count: 10 physical cores, 20 logical processors, using up to 20 threads
Optimize a model with 20737 rows, 7009 columns and 66287 nonzeros
Model fingerprint: 0xfb6113b7
Variable types: 5953 continuous, 1056 integer (1056 binary)
Coefficient statistics:
  Matrix range     [5e-01, 8e+02]
  Objective range  [1e+00, 1e+00]
  Bounds range     [1e+03, 1e+03]
  RHS range        [1e+00, 1e+08]

MIP start from previous solve produced solution with objective 5332.22 (0.10s)
Loaded MIP start from previous solve with objective 5332.22

Presolve removed 9432 rows and 2490 columns
Presolve time: 0.27s
Presolved: 11305 rows, 4519 columns, 38673 nonzeros
Variable types: 4322 continuous, 197 integer (194 binary)

Root relaxation: objective 5.471437e+03, 5883 iterations, 0.08 seconds (0.09 work units)

    Nodes    |    Current Node    |     Objective Bounds      |     Work
 Expl Unexpl |  Obj  Depth IntInf | Incumbent    BestBd   Gap | It/Node Time

     0     0 5471.43704    0   19 5332.22222 5471.43704  2.61%     -    0s

Explored 1 nodes (6015 simplex iterations) in 0.51 seconds (0.76 work units)
Thread count was 20 (of 20 available processors)

Solution count 2: 5332.22 -5332.22 

Optimal solution found (tolerance 5.00e-02)
Best objective 5.332222222222e+03, best bound 5.471437038832e+03, gap 2.6108%

User-callback calls 1019, time in user-callback 0.00 sec
Set parameter TimeLimit to value 7185
Gurobi Optimizer version 9.5.2 build v9.5.2rc0 (win64)
Thread count: 10 physical cores, 20 logical processors, using up to 20 threads
Optimize a model with 22286 rows, 7513 columns and 71272 nonzeros
Model fingerprint: 0x3650b6aa
Variable types: 6409 continuous, 1104 integer (1104 binary)
Coefficient statistics:
  Matrix range     [5e-01, 8e+02]
  Objective range  [1e+00, 1e+00]
  Bounds range     [1e+03, 1e+03]
  RHS range        [1e+00, 1e+08]

MIP start from previous solve produced solution with objective 5332.22 (0.11s)
Loaded MIP start from previous solve with objective 5332.22

Presolve removed 9992 rows and 2613 columns
Presolve time: 0.29s
Presolved: 12294 rows, 4900 columns, 42028 nonzeros
Variable types: 4703 continuous, 197 integer (194 binary)

Root relaxation: objective 5.467308e+03, 6259 iterations, 0.09 seconds (0.09 work units)

    Nodes    |    Current Node    |     Objective Bounds      |     Work
 Expl Unexpl |  Obj  Depth IntInf | Incumbent    BestBd   Gap | It/Node Time

     0     0 5467.30779    0   19 5332.22222 5467.30779  2.53%     -    0s

Explored 1 nodes (6732 simplex iterations) in 0.58 seconds (0.88 work units)
Thread count was 20 (of 20 available processors)

Solution count 2: 5332.22 -5332.22 

Optimal solution found (tolerance 5.00e-02)
Best objective 5.332222222222e+03, best bound 5.467307786285e+03, gap 2.5334%

User-callback calls 1024, time in user-callback 0.00 sec
Set parameter TimeLimit to value 7182
Gurobi Optimizer version 9.5.2 build v9.5.2rc0 (win64)
Thread count: 10 physical cores, 20 logical processors, using up to 20 threads
Optimize a model with 23835 rows, 8017 columns and 76257 nonzeros
Model fingerprint: 0x5a290a55
Variable types: 6865 continuous, 1152 integer (1152 binary)
Coefficient statistics:
  Matrix range     [5e-01, 8e+02]
  Objective range  [1e+00, 1e+00]
  Bounds range     [1e+03, 1e+03]
  RHS range        [1e+00, 1e+08]

MIP start from previous solve produced solution with objective 5332.22 (0.12s)
Loaded MIP start from previous solve with objective 5332.22

Presolve removed 10552 rows and 2736 columns
Presolve time: 0.32s
Presolved: 13283 rows, 5281 columns, 45333 nonzeros
Variable types: 5084 continuous, 197 integer (194 binary)

Root relaxation: objective 5.464071e+03, 6809 iterations, 0.11 seconds (0.12 work units)

    Nodes    |    Current Node    |     Objective Bounds      |     Work
 Expl Unexpl |  Obj  Depth IntInf | Incumbent    BestBd   Gap | It/Node Time

     0     0 5464.07100    0   19 5332.22222 5464.07100  2.47%     -    0s

Explored 1 nodes (7232 simplex iterations) in 0.65 seconds (0.97 work units)
Thread count was 20 (of 20 available processors)

Solution count 2: 5332.22 -5332.22 

Optimal solution found (tolerance 5.00e-02)
Best objective 5.332222222222e+03, best bound 5.464071003578e+03, gap 2.4727%

User-callback calls 1043, time in user-callback 0.00 sec
Set parameter TimeLimit to value 7179
Gurobi Optimizer version 9.5.2 build v9.5.2rc0 (win64)
Thread count: 10 physical cores, 20 logical processors, using up to 20 threads
Optimize a model with 25384 rows, 8521 columns and 81242 nonzeros
Model fingerprint: 0x84855c3d
Variable types: 7321 continuous, 1200 integer (1200 binary)
Coefficient statistics:
  Matrix range     [5e-01, 8e+02]
  Objective range  [1e+00, 1e+00]
  Bounds range     [1e+03, 1e+03]
  RHS range        [1e+00, 1e+08]

MIP start from previous solve produced solution with objective 5308.52 (0.13s)
Loaded MIP start from previous solve with objective 5308.52

Presolve removed 11112 rows and 2859 columns
Presolve time: 0.35s
Presolved: 14272 rows, 5662 columns, 48684 nonzeros
Variable types: 5465 continuous, 197 integer (194 binary)

Root relaxation: objective 5.462687e+03, 7509 iterations, 0.13 seconds (0.13 work units)

    Nodes    |    Current Node    |     Objective Bounds      |     Work
 Expl Unexpl |  Obj  Depth IntInf | Incumbent    BestBd   Gap | It/Node Time

     0     0 5462.68721    0   19 5308.51852 5462.68721  2.90%     -    0s

Explored 1 nodes (7982 simplex iterations) in 0.72 seconds (1.07 work units)
Thread count was 20 (of 20 available processors)

Solution count 2: 5308.52 -5308.52 

Optimal solution found (tolerance 5.00e-02)
Best objective 5.308518518519e+03, best bound 5.462687213557e+03, gap 2.9042%

User-callback calls 1053, time in user-callback 0.00 sec
Set parameter TimeLimit to value 7177
Gurobi Optimizer version 9.5.2 build v9.5.2rc0 (win64)
Thread count: 10 physical cores, 20 logical processors, using up to 20 threads
Optimize a model with 26933 rows, 9025 columns and 86227 nonzeros
Model fingerprint: 0x563eff7c
Variable types: 7777 continuous, 1248 integer (1248 binary)
Coefficient statistics:
  Matrix range     [5e-01, 8e+02]
  Objective range  [1e+00, 1e+00]
  Bounds range     [1e+03, 1e+03]
  RHS range        [1e+00, 1e+08]

MIP start from previous solve produced solution with objective 5276.67 (0.14s)
Loaded MIP start from previous solve with objective 5276.67

Presolve removed 11672 rows and 2982 columns
Presolve time: 0.36s
Presolved: 15261 rows, 6043 columns, 52047 nonzeros
Variable types: 5846 continuous, 197 integer (194 binary)

Root relaxation: objective 5.462629e+03, 7843 iterations, 0.11 seconds (0.12 work units)

    Nodes    |    Current Node    |     Objective Bounds      |     Work
 Expl Unexpl |  Obj  Depth IntInf | Incumbent    BestBd   Gap | It/Node Time

     0     0 5462.62919    0   19 5276.66667 5462.62919  3.52%     -    0s

Explored 1 nodes (8076 simplex iterations) in 0.72 seconds (1.09 work units)
Thread count was 20 (of 20 available processors)

Solution count 2: 5276.67 -5276.67 

Optimal solution found (tolerance 5.00e-02)
Best objective 5.276666666667e+03, best bound 5.462629185762e+03, gap 3.5242%

User-callback calls 1056, time in user-callback 0.00 sec
Set parameter TimeLimit to value 7174
Gurobi Optimizer version 9.5.2 build v9.5.2rc0 (win64)
Thread count: 10 physical cores, 20 logical processors, using up to 20 threads
Optimize a model with 28482 rows, 9529 columns and 91212 nonzeros
Model fingerprint: 0x345886c6
Variable types: 8233 continuous, 1296 integer (1296 binary)
Coefficient statistics:
  Matrix range     [5e-01, 8e+02]
  Objective range  [1e+00, 1e+00]
  Bounds range     [1e+03, 1e+03]
  RHS range        [1e+00, 1e+08]

MIP start from previous solve produced solution with objective 5276.67 (0.15s)
Loaded MIP start from previous solve with objective 5276.67

Presolve removed 12232 rows and 3105 columns
Presolve time: 0.38s
Presolved: 16250 rows, 6424 columns, 55410 nonzeros
Variable types: 6227 continuous, 197 integer (194 binary)

Root relaxation: objective 5.423750e+03, 8437 iterations, 0.13 seconds (0.14 work units)

    Nodes    |    Current Node    |     Objective Bounds      |     Work
 Expl Unexpl |  Obj  Depth IntInf | Incumbent    BestBd   Gap | It/Node Time

     0     0 5423.75031    0   20 5276.66667 5423.75031  2.79%     -    0s

Explored 1 nodes (8820 simplex iterations) in 0.77 seconds (1.18 work units)
Thread count was 20 (of 20 available processors)

Solution count 2: 5276.67 -5276.67 

Optimal solution found (tolerance 5.00e-02)
Best objective 5.276666666667e+03, best bound 5.423750310962e+03, gap 2.7874%

User-callback calls 1059, time in user-callback 0.00 sec
Set parameter TimeLimit to value 7170
Gurobi Optimizer version 9.5.2 build v9.5.2rc0 (win64)
Thread count: 10 physical cores, 20 logical processors, using up to 20 threads
Optimize a model with 30031 rows, 10033 columns and 96197 nonzeros
Model fingerprint: 0x050927c6
Variable types: 8689 continuous, 1344 integer (1344 binary)
Coefficient statistics:
  Matrix range     [5e-01, 8e+02]
  Objective range  [1e+00, 1e+00]
  Bounds range     [1e+03, 1e+03]
  RHS range        [1e+00, 1e+08]

MIP start from previous solve produced solution with objective 5276.67 (0.15s)
Loaded MIP start from previous solve with objective 5276.67

Presolve removed 12792 rows and 3228 columns
Presolve time: 0.40s
Presolved: 17239 rows, 6805 columns, 58773 nonzeros
Variable types: 6608 continuous, 197 integer (194 binary)

Root relaxation: objective 5.422053e+03, 8822 iterations, 0.16 seconds (0.17 work units)

    Nodes    |    Current Node    |     Objective Bounds      |     Work
 Expl Unexpl |  Obj  Depth IntInf | Incumbent    BestBd   Gap | It/Node Time

     0     0 5422.05323    0   19 5276.66667 5422.05323  2.76%     -    0s

Explored 1 nodes (9294 simplex iterations) in 0.87 seconds (1.29 work units)
Thread count was 20 (of 20 available processors)

Solution count 2: 5276.67 -5276.67 

Optimal solution found (tolerance 5.00e-02)
Best objective 5.276666666667e+03, best bound 5.422053234138e+03, gap 2.7553%

User-callback calls 1057, time in user-callback 0.00 sec
Set parameter TimeLimit to value 7167
Gurobi Optimizer version 9.5.2 build v9.5.2rc0 (win64)
Thread count: 10 physical cores, 20 logical processors, using up to 20 threads
Optimize a model with 31580 rows, 10537 columns and 101182 nonzeros
Model fingerprint: 0xe8eb858e
Variable types: 9145 continuous, 1392 integer (1392 binary)
Coefficient statistics:
  Matrix range     [5e-01, 8e+02]
  Objective range  [1e+00, 1e+00]
  Bounds range     [1e+03, 1e+03]
  RHS range        [1e+00, 1e+08]

MIP start from previous solve produced solution with objective 5276.67 (0.18s)
Loaded MIP start from previous solve with objective 5276.67

Presolve removed 13352 rows and 3351 columns
Presolve time: 0.43s
Presolved: 18228 rows, 7186 columns, 62133 nonzeros
Variable types: 6989 continuous, 197 integer (194 binary)

Root relaxation: objective 5.421761e+03, 9431 iterations, 0.18 seconds (0.20 work units)

    Nodes    |    Current Node    |     Objective Bounds      |     Work
 Expl Unexpl |  Obj  Depth IntInf | Incumbent    BestBd   Gap | It/Node Time

     0     0 5421.76088    0   19 5276.66667 5421.76088  2.75%     -    0s

Explored 1 nodes (10094 simplex iterations) in 0.94 seconds (1.41 work units)
Thread count was 20 (of 20 available processors)

Solution count 2: 5276.67 -5276.67 

Optimal solution found (tolerance 5.00e-02)
Best objective 5.276666666667e+03, best bound 5.421760877413e+03, gap 2.7497%

User-callback calls 1074, time in user-callback 0.00 sec
